50, 62425
2551, 355
2552, 924
2553, 205
2554, 118
2555, 228
2556, 500
2557, 22
2558, 571
2559, 983
2560, 585
2561, 255
2562, 912
2563, 444
2564, 290
2565, 2
2566, 319
2567, 855
2568, 665
2569, 692
2570, 248
2571, 229
2572, 890
2573, 265
2574, 474
2575, 836
2576, 777
2577, 906
2578, 386
2579, 975
2580, 359
2581, 914
2582, 738
2583, 656
2584, 78
2585, 876
2586, 99
2587, 788
2588, 376
2589, 423
2590, 962
2591, 530
2592, 395
2593, 58
2594, 518
2595, 995
2596, 567
2597, 823
2598, 431
2599, 987
2600, 765
